NAME 
ROWS
 N  OBJ
 L  R0      
 E  R1      
 E  R2      
 E  R3      
 E  R4      
 E  R5      
COLUMNS
    MARKER    'MARKER'                 'INTORG'
    I0(2)     OBJ       -57
    I0(2)     R0        4
    I0(2)     R5        1
    I1(3)     OBJ       -52
    I1(3)     R0        -18
    I1(3)     R2        1
    I1(3)     R5        1
    I2(3)     OBJ       99
    I2(3)     R0        72
    I2(3)     R3        5
    I2(3)     R5        1
    MARKER    'MARKER'                 'INTEND'
    C3(3)     OBJ       3
    C3(3)     R1        11
    C3(3)     R3        5
    C3(3)     R4        10
    C4(3)     OBJ       -5
    C4(3)     R0        5
    C4(3)     R1        7
    C4(3)     R3        3
    C5(1)     R1        1
    C6(1)     R2        1
    C7(1)     R3        1
    C8(1)     R4        1
    C9(1)     R5        1
RHS
    RHS1      R0        7.0428571428571431e+01
    RHS1      R1        93
    RHS1      R2        54
    RHS1      R3        99
    RHS1      R4        75
    RHS1      R5        1
BOUNDS
 UP BND1      I0(2)     1
 UP BND1      I1(3)     1
 UP BND1      I2(3)     1
ENDATA
